2
4
20
1 1.3 1.55 1.75 2.1
12 26 13 38 24 32 43 22 34 18 31 49 18 20 28 43 17 21 25 12 15 29 14 18 11 20 19 35 16 16 14 41 28 44 33 6 39 25 21 11 40 21 17 44 49 43 26 33 44 48 5 38 29 8 24 36 49 11 17 39 47 25 7 45 34 16 16 11 33 25 35 39 14 35 39 38 13 15 30 8 